100
32
17
17
9
13
3
3
26
19
20
32
13
13
8
23
12
11
13
17
18
2
16
1
2
1
1
1
3
3
3
1
2
1
21
18
1
1
2
18
2
3
1
2
2
4
1
5
4
4
1
1
5
3
1
3
19
4
2
2
4
3
3
3
1
1
2
1
22
2
3
1
3
20
2
2
1
1
21
4
3
1
19
3
3
4
3
3
3
2
2
2
1
2
17
2
1
1
1
2
2
1